\ENCODING=ISO-8859-1
\Problem name: 

Maximize
 obj: 367 d_0 + 355 d_1 + 374 d_2 + 247 d_3 + 302 d_4 + 311 d_5 + 389 d_6
      + 146 d_7 + 289 d_8 + 229 d_9 + 215 d_10 + 348 d_11 + 235 d_12 + 295 d_13
      + 260 d_14 + 446 d_15 + 240 d_16 + 463 d_17 + 196 d_18 + 353 d_19
      + 401 d_20 + 503 d_21 + 242 d_22 + 211 d_23 + 184 d_24 + 268 d_25
      + 372 d_26 + 289 d_27 + 443 d_28 + 297 d_29 + 234 d_30 + 167 d_31
      + 313 d_32 + 235 d_33 + 318 d_34 + 402 d_35 + 278 d_36 + 261 d_37
      + 279 d_38 + 258 d_39 + 357 d_40 + 355 d_41 + 174 d_42 + 285 d_43
      + 179 d_44 + 284 d_45 + 247 d_46 + 335 d_47 + 424 d_48 + 231 d_49
      + 335 d_50 + 293 d_51 + 118 d_52 + 258 d_53 + 280 d_54 + 415 d_55
      + 320 d_56 + 315 d_57 + 319 d_58 + 313 d_59 + 320 d_60 + 269 d_61
      + 417 d_62 + 385 d_63 + 292 d_64 + 268 d_65 + 241 d_66 + 307 d_67
      + 291 d_68 + 316 d_69 + 248 d_70 + 252 d_71 + 239 d_72 + 339 d_73
      + 275 d_74 + 346 d_75 + 300 d_76 + 220 d_77 + 339 d_78 + 278 d_79
      + 447 d_80 + 383 d_81 + 228 d_82 + 394 d_83 + 200 d_84 + 292 d_85
      + 367 d_86 + 426 d_87 + 254 d_88 + 335 d_89 + 328 d_90 + 255 d_91
      + 286 d_92 + 221 d_93 + 257 d_94 + 157 d_95 + 199 d_96 + 364 d_97
      + 275 d_98 + 403 d_99
Subject To
 c1: 173 d_0 + 208 d_1 + 185 d_2 + 293 d_3 + 252 d_4 + 231 d_5 + 177 d_6
     + 401 d_7 + 263 d_8 + 335 d_9 + 334 d_10 + 211 d_11 + 304 d_12 + 238 d_13
     + 299 d_14 + 91 d_15 + 309 d_16 + 91 d_17 + 348 d_18 + 221 d_19 + 140 d_20
     + 69 d_21 + 302 d_22 + 335 d_23 + 369 d_24 + 306 d_25 + 168 d_26
     + 265 d_27 + 123 d_28 + 248 d_29 + 320 d_30 + 394 d_31 + 244 d_32
     + 319 d_33 + 227 d_34 + 147 d_35 + 278 d_36 + 290 d_37 + 296 d_38
     + 285 d_39 + 206 d_40 + 203 d_41 + 364 d_42 + 266 d_43 + 360 d_44
     + 292 d_45 + 293 d_46 + 231 d_47 + 116 d_48 + 319 d_49 + 220 d_50
     + 269 d_51 + 416 d_52 + 266 d_53 + 290 d_54 + 132 d_55 + 223 d_56
     + 224 d_57 + 233 d_58 + 244 d_59 + 231 d_60 + 299 d_61 + 151 d_62
     + 179 d_63 + 259 d_64 + 294 d_65 + 304 d_66 + 255 d_67 + 258 d_68
     + 262 d_69 + 313 d_70 + 309 d_71 + 314 d_72 + 211 d_73 + 264 d_74
     + 211 d_75 + 241 d_76 + 351 d_77 + 222 d_78 + 285 d_79 + 98 d_80
     + 162 d_81 + 324 d_82 + 172 d_83 + 332 d_84 + 267 d_85 + 189 d_86
     + 131 d_87 + 303 d_88 + 194 d_89 + 206 d_90 + 299 d_91 + 274 d_92
     + 328 d_93 + 316 d_94 + 396 d_95 + 330 d_96 + 199 d_97 + 275 d_98
     + 129 d_99 <= 798
 c2: 173 d_0 + 208 d_1 + 185 d_2 + 293 d_3 + 252 d_4 + 231 d_5 + 177 d_6
     + 401 d_7 + 263 d_8 + 335 d_9 + 334 d_10 + 211 d_11 + 304 d_12 + 238 d_13
     + 299 d_14 + 91 d_15 + 309 d_16 + 91 d_17 + 348 d_18 + 221 d_19 + 140 d_20
     + 69 d_21 + 302 d_22 + 335 d_23 + 369 d_24 + 306 d_25 + 168 d_26
     + 265 d_27 + 123 d_28 + 248 d_29 + 320 d_30 + 394 d_31 + 244 d_32
     + 319 d_33 + 227 d_34 + 147 d_35 + 278 d_36 + 290 d_37 + 296 d_38
     + 285 d_39 + 206 d_40 + 203 d_41 + 364 d_42 + 266 d_43 + 360 d_44
     + 292 d_45 + 293 d_46 + 231 d_47 + 116 d_48 + 319 d_49 + 220 d_50
     + 269 d_51 + 416 d_52 + 266 d_53 + 290 d_54 + 132 d_55 + 223 d_56
     + 224 d_57 + 233 d_58 + 244 d_59 + 231 d_60 + 299 d_61 + 151 d_62
     + 179 d_63 + 259 d_64 + 294 d_65 + 304 d_66 + 255 d_67 + 258 d_68
     + 262 d_69 + 313 d_70 + 309 d_71 + 314 d_72 + 211 d_73 + 264 d_74
     + 211 d_75 + 241 d_76 + 351 d_77 + 222 d_78 + 285 d_79 + 98 d_80
     + 162 d_81 + 324 d_82 + 172 d_83 + 332 d_84 + 267 d_85 + 189 d_86
     + 131 d_87 + 303 d_88 + 194 d_89 + 206 d_90 + 299 d_91 + 274 d_92
     + 328 d_93 + 316 d_94 + 396 d_95 + 330 d_96 + 199 d_97 + 275 d_98
     + 129 d_99 <= 760
 c3: 173 d_0 + 208 d_1 + 185 d_2 + 293 d_3 + 252 d_4 + 231 d_5 + 177 d_6
     + 401 d_7 + 263 d_8 + 335 d_9 + 334 d_10 + 211 d_11 + 304 d_12 + 238 d_13
     + 299 d_14 + 91 d_15 + 309 d_16 + 91 d_17 + 348 d_18 + 221 d_19 + 140 d_20
     + 69 d_21 + 302 d_22 + 335 d_23 + 369 d_24 + 306 d_25 + 168 d_26
     + 265 d_27 + 123 d_28 + 248 d_29 + 320 d_30 + 394 d_31 + 244 d_32
     + 319 d_33 + 227 d_34 + 147 d_35 + 278 d_36 + 290 d_37 + 296 d_38
     + 285 d_39 + 206 d_40 + 203 d_41 + 364 d_42 + 266 d_43 + 360 d_44
     + 292 d_45 + 293 d_46 + 231 d_47 + 116 d_48 + 319 d_49 + 220 d_50
     + 269 d_51 + 416 d_52 + 266 d_53 + 290 d_54 + 132 d_55 + 223 d_56
     + 224 d_57 + 233 d_58 + 244 d_59 + 231 d_60 + 299 d_61 + 151 d_62
     + 179 d_63 + 259 d_64 + 294 d_65 + 304 d_66 + 255 d_67 + 258 d_68
     + 262 d_69 + 313 d_70 + 309 d_71 + 314 d_72 + 211 d_73 + 264 d_74
     + 211 d_75 + 241 d_76 + 351 d_77 + 222 d_78 + 285 d_79 + 98 d_80
     + 162 d_81 + 324 d_82 + 172 d_83 + 332 d_84 + 267 d_85 + 189 d_86
     + 131 d_87 + 303 d_88 + 194 d_89 + 206 d_90 + 299 d_91 + 274 d_92
     + 328 d_93 + 316 d_94 + 396 d_95 + 330 d_96 + 199 d_97 + 275 d_98
     + 129 d_99 <= 810
 c4: 173 d_0 + 208 d_1 + 185 d_2 + 293 d_3 + 252 d_4 + 231 d_5 + 177 d_6
     + 401 d_7 + 263 d_8 + 335 d_9 + 334 d_10 + 211 d_11 + 304 d_12 + 238 d_13
     + 299 d_14 + 91 d_15 + 309 d_16 + 91 d_17 + 348 d_18 + 221 d_19 + 140 d_20
     + 69 d_21 + 302 d_22 + 335 d_23 + 369 d_24 + 306 d_25 + 168 d_26
     + 265 d_27 + 123 d_28 + 248 d_29 + 320 d_30 + 394 d_31 + 244 d_32
     + 319 d_33 + 227 d_34 + 147 d_35 + 278 d_36 + 290 d_37 + 296 d_38
     + 285 d_39 + 206 d_40 + 203 d_41 + 364 d_42 + 266 d_43 + 360 d_44
     + 292 d_45 + 293 d_46 + 231 d_47 + 116 d_48 + 319 d_49 + 220 d_50
     + 269 d_51 + 416 d_52 + 266 d_53 + 290 d_54 + 132 d_55 + 223 d_56
     + 224 d_57 + 233 d_58 + 244 d_59 + 231 d_60 + 299 d_61 + 151 d_62
     + 179 d_63 + 259 d_64 + 294 d_65 + 304 d_66 + 255 d_67 + 258 d_68
     + 262 d_69 + 313 d_70 + 309 d_71 + 314 d_72 + 211 d_73 + 264 d_74
     + 211 d_75 + 241 d_76 + 351 d_77 + 222 d_78 + 285 d_79 + 98 d_80
     + 162 d_81 + 324 d_82 + 172 d_83 + 332 d_84 + 267 d_85 + 189 d_86
     + 131 d_87 + 303 d_88 + 194 d_89 + 206 d_90 + 299 d_91 + 274 d_92
     + 328 d_93 + 316 d_94 + 396 d_95 + 330 d_96 + 199 d_97 + 275 d_98
     + 129 d_99 <= 824
 c5: 173 d_0 + 208 d_1 + 185 d_2 + 293 d_3 + 252 d_4 + 231 d_5 + 177 d_6
     + 401 d_7 + 263 d_8 + 335 d_9 + 334 d_10 + 211 d_11 + 304 d_12 + 238 d_13
     + 299 d_14 + 91 d_15 + 309 d_16 + 91 d_17 + 348 d_18 + 221 d_19 + 140 d_20
     + 69 d_21 + 302 d_22 + 335 d_23 + 369 d_24 + 306 d_25 + 168 d_26
     + 265 d_27 + 123 d_28 + 248 d_29 + 320 d_30 + 394 d_31 + 244 d_32
     + 319 d_33 + 227 d_34 + 147 d_35 + 278 d_36 + 290 d_37 + 296 d_38
     + 285 d_39 + 206 d_40 + 203 d_41 + 364 d_42 + 266 d_43 + 360 d_44
     + 292 d_45 + 293 d_46 + 231 d_47 + 116 d_48 + 319 d_49 + 220 d_50
     + 269 d_51 + 416 d_52 + 266 d_53 + 290 d_54 + 132 d_55 + 223 d_56
     + 224 d_57 + 233 d_58 + 244 d_59 + 231 d_60 + 299 d_61 + 151 d_62
     + 179 d_63 + 259 d_64 + 294 d_65 + 304 d_66 + 255 d_67 + 258 d_68
     + 262 d_69 + 313 d_70 + 309 d_71 + 314 d_72 + 211 d_73 + 264 d_74
     + 211 d_75 + 241 d_76 + 351 d_77 + 222 d_78 + 285 d_79 + 98 d_80
     + 162 d_81 + 324 d_82 + 172 d_83 + 332 d_84 + 267 d_85 + 189 d_86
     + 131 d_87 + 303 d_88 + 194 d_89 + 206 d_90 + 299 d_91 + 274 d_92
     + 328 d_93 + 316 d_94 + 396 d_95 + 330 d_96 + 199 d_97 + 275 d_98
     + 129 d_99 <= 868
Bounds
 0 <= d_0 <= 1
 0 <= d_1 <= 1
 0 <= d_2 <= 1
 0 <= d_3 <= 1
 0 <= d_4 <= 1
 0 <= d_5 <= 1
 0 <= d_6 <= 1
 0 <= d_7 <= 1
 0 <= d_8 <= 1
 0 <= d_9 <= 1
 0 <= d_10 <= 1
 0 <= d_11 <= 1
 0 <= d_12 <= 1
 0 <= d_13 <= 1
 0 <= d_14 <= 1
 0 <= d_15 <= 1
 0 <= d_16 <= 1
 0 <= d_17 <= 1
 0 <= d_18 <= 1
 0 <= d_19 <= 1
 0 <= d_20 <= 1
 0 <= d_21 <= 1
 0 <= d_22 <= 1
 0 <= d_23 <= 1
 0 <= d_24 <= 1
 0 <= d_25 <= 1
 0 <= d_26 <= 1
 0 <= d_27 <= 1
 0 <= d_28 <= 1
 0 <= d_29 <= 1
 0 <= d_30 <= 1
 0 <= d_31 <= 1
 0 <= d_32 <= 1
 0 <= d_33 <= 1
 0 <= d_34 <= 1
 0 <= d_35 <= 1
 0 <= d_36 <= 1
 0 <= d_37 <= 1
 0 <= d_38 <= 1
 0 <= d_39 <= 1
 0 <= d_40 <= 1
 0 <= d_41 <= 1
 0 <= d_42 <= 1
 0 <= d_43 <= 1
 0 <= d_44 <= 1
 0 <= d_45 <= 1
 0 <= d_46 <= 1
 0 <= d_47 <= 1
 0 <= d_48 <= 1
 0 <= d_49 <= 1
 0 <= d_50 <= 1
 0 <= d_51 <= 1
 0 <= d_52 <= 1
 0 <= d_53 <= 1
 0 <= d_54 <= 1
 0 <= d_55 <= 1
 0 <= d_56 <= 1
 0 <= d_57 <= 1
 0 <= d_58 <= 1
 0 <= d_59 <= 1
 0 <= d_60 <= 1
 0 <= d_61 <= 1
 0 <= d_62 <= 1
 0 <= d_63 <= 1
 0 <= d_64 <= 1
 0 <= d_65 <= 1
 0 <= d_66 <= 1
 0 <= d_67 <= 1
 0 <= d_68 <= 1
 0 <= d_69 <= 1
 0 <= d_70 <= 1
 0 <= d_71 <= 1
 0 <= d_72 <= 1
 0 <= d_73 <= 1
 0 <= d_74 <= 1
 0 <= d_75 <= 1
 0 <= d_76 <= 1
 0 <= d_77 <= 1
 0 <= d_78 <= 1
 0 <= d_79 <= 1
 0 <= d_80 <= 1
 0 <= d_81 <= 1
 0 <= d_82 <= 1
 0 <= d_83 <= 1
 0 <= d_84 <= 1
 0 <= d_85 <= 1
 0 <= d_86 <= 1
 0 <= d_87 <= 1
 0 <= d_88 <= 1
 0 <= d_89 <= 1
 0 <= d_90 <= 1
 0 <= d_91 <= 1
 0 <= d_92 <= 1
 0 <= d_93 <= 1
 0 <= d_94 <= 1
 0 <= d_95 <= 1
 0 <= d_96 <= 1
 0 <= d_97 <= 1
 0 <= d_98 <= 1
 0 <= d_99 <= 1
Binaries
 d_0  d_1  d_2  d_3  d_4  d_5  d_6  d_7  d_8  d_9  d_10  d_11  d_12  d_13 
 d_14  d_15  d_16  d_17  d_18  d_19  d_20  d_21  d_22  d_23  d_24  d_25  d_26 
 d_27  d_28  d_29  d_30  d_31  d_32  d_33  d_34  d_35  d_36  d_37  d_38  d_39 
 d_40  d_41  d_42  d_43  d_44  d_45  d_46  d_47  d_48  d_49  d_50  d_51  d_52 
 d_53  d_54  d_55  d_56  d_57  d_58  d_59  d_60  d_61  d_62  d_63  d_64  d_65 
 d_66  d_67  d_68  d_69  d_70  d_71  d_72  d_73  d_74  d_75  d_76  d_77  d_78 
 d_79  d_80  d_81  d_82  d_83  d_84  d_85  d_86  d_87  d_88  d_89  d_90  d_91 
 d_92  d_93  d_94  d_95  d_96  d_97  d_98  d_99 
End
